500
300 300
1 210 384
2 210 426
3 210 693
4 209 578
5 209 893
6 209 184
7 208 581
8 208 174
9 208 736
10 207 885
11 205 356
12 205 700
13 205 769
14 205 912
15 205 213
16 205 266
17 205 870
18 204 134
19 204 904
20 204 942
21 204 940
22 204 640
23 203 296
24 202 318
25 202 765
26 202 755
27 201 740
28 201 125
29 200 461
30 200 587
31 200 482
32 200 52
33 198 672
34 198 323
35 198 113
36 198 66
37 198 122
38 198 796
39 198 98
40 197 227
41 196 651
42 196 9
43 196 670
44 196 179
45 196 879
46 196 592
47 196 790
48 195 976
49 195 747
50 195 418
51 195 137
52 195 55
53 195 205
54 194 693
55 194 245
56 194 476
57 193 874
58 193 37
59 193 396
60 193 38
61 193 508
62 192 830
63 192 873
64 192 335
65 192 495
66 192 841
67 191 988
68 191 408
69 191 138
70 191 92
71 190 872
72 190 58
73 190 372
74 190 778
75 190 881
76 189 894
77 189 47
78 189 788
79 189 221
80 189 637
81 188 811
82 188 140
83 188 64
84 188 817
85 187 851
86 187 526
87 187 562
88 186 517
89 186 662
90 186 491
91 186 376
92 186 987
93 185 1000
94 185 64
95 185 150
96 184 424
97 183 930
98 183 849
99 183 266
100 183 984
101 183 747
102 182 27
103 182 462
104 182 993
105 182 365
106 182 708
107 181 652
108 181 155
109 181 363
110 180 26
111 179 488
112 179 524
113 178 419
114 177 863
115 177 871
116 177 398
117 177 1
118 177 433
119 177 18
120 176 436
121 176 707
122 175 200
123 175 23
124 174 561
125 174 275
126 173 240
127 173 310
128 172 566
129 171 463
130 171 818
131 171 708
132 170 60
133 170 908
134 169 56
135 169 643
136 169 558
137 169 227
138 169 951
139 168 189
140 168 144
141 168 283
142 167 569
143 167 499
144 167 92
145 167 235
146 166 584
147 166 524
148 166 296
149 166 639
150 165 343
151 165 164
152 164 798
153 164 517
154 164 51
155 163 569
156 163 468
157 163 648
158 162 751
159 162 38
160 162 4
161 162 760
162 161 941
163 161 805
164 161 532
165 160 652
166 160 950
167 160 127
168 160 940
169 159 237
170 159 501
171 158 23
172 158 407
173 158 503
174 157 755
175 157 162
176 157 173
177 157 326
178 157 935
179 156 565
180 156 87
181 156 725
182 156 320
183 155 57
184 155 219
185 155 623
186 154 864
187 154 984
188 154 624
189 153 903
190 152 83
191 152 881
192 152 129
193 152 119
194 151 161
195 151 984
196 151 512
197 151 703
198 151 328
199 150 551
200 150 769
201 150 210
202 150 810
203 150 712
204 150 590
205 148 348
206 148 825
207 147 20
208 147 492
209 147 198
210 146 825
211 146 28
212 146 527
213 146 253
214 145 616
215 145 341
216 144 297
217 144 441
218 144 28
219 143 838
220 143 629
221 143 329
222 143 353
223 143 153
224 142 536
225 142 149
226 142 679
227 142 384
228 142 254
229 141 807
230 141 380
231 141 869
232 140 860
233 140 563
234 140 669
235 139 382
236 139 331
237 138 245
238 138 54
239 137 188
240 137 122
241 137 555
242 137 686
243 136 313
244 136 284
245 136 88
246 136 379
247 135 428
248 135 244
249 135 687
250 135 94
251 135 539
252 134 444
253 134 129
254 134 244
255 133 535
256 132 480
257 132 610
258 131 536
259 131 95
260 131 278
261 130 672
262 130 320
263 130 514
264 130 929
265 129 258
266 128 157
267 128 86
268 128 287
269 128 486
270 127 821
271 127 889
272 127 889
273 126 340
274 126 425
275 126 580
276 125 179
277 125 144
278 125 684
279 125 950
280 125 89
281 124 155
282 123 908
283 123 14
284 123 953
285 123 944
286 122 511
287 122 614
288 122 623
289 122 802
290 122 765
291 122 797
292 121 339
293 121 811
294 121 282
295 121 990
296 120 978
297 120 985
298 120 520
299 120 931
300 119 2
301 119 573
302 119 463
303 119 73
304 118 139
305 118 376
306 118 709
307 118 510
308 118 403
309 117 88
310 117 346
311 117 221
312 116 157
313 116 53
314 116 236
315 115 910
316 114 493
317 113 982
318 113 994
319 113 40
320 113 398
321 112 919
322 112 168
323 112 726
324 111 952
325 109 602
326 109 330
327 109 254
328 109 403
329 109 832
330 109 747
331 109 606
332 109 281
333 108 174
334 108 374
335 107 722
336 107 641
337 107 6
338 107 163
339 106 778
340 106 694
341 106 943
342 105 950
343 105 673
344 104 134
345 104 482
346 104 524
347 103 977
348 103 9
349 103 149
350 103 179
351 102 331
352 101 562
353 101 853
354 101 634
355 101 402
356 101 614
357 100 408
358 100 618
359 100 758
360 99 90
361 99 997
362 98 278
363 98 171
364 98 18
365 98 937
366 97 906
367 97 654
368 97 233
369 97 862
370 96 755
371 96 233
372 96 8
373 96 538
374 96 855
375 95 928
376 95 576
377 95 513
378 95 871
379 95 728
380 95 931
381 94 584
382 94 858
383 94 108
384 93 256
385 93 998
386 93 727
387 93 946
388 92 430
389 92 86
390 92 232
391 92 816
392 92 588
393 91 890
394 91 31
395 91 648
396 91 652
397 91 964
398 91 853
399 91 346
400 91 48
401 91 573
402 91 92
403 90 363
404 90 895
405 90 35
406 90 538
407 88 688
408 88 572
409 87 885
410 86 753
411 86 280
412 86 831
413 86 573
414 86 655
415 85 759
416 85 536
417 85 728
418 85 515
419 85 907
420 84 374
421 84 676
422 84 494
423 84 558
424 83 251
425 83 459
426 83 346
427 82 698
428 82 27
429 82 552
430 82 186
431 82 331
432 81 961
433 81 119
434 81 207
435 81 448
436 80 47
437 79 4
438 79 824
439 79 977
440 79 612
441 78 731
442 77 72
443 77 802
444 77 59
445 76 420
446 75 644
447 75 900
448 75 902
449 75 17
450 75 107
451 75 20
452 74 423
453 73 689
454 73 662
455 72 986
456 72 1000
457 72 182
458 71 145
459 71 297
460 71 903
461 71 886
462 70 387
463 70 771
464 70 277
465 70 806
466 70 562
467 69 575
468 68 893
469 68 421
470 67 904
471 67 300
472 66 260
473 66 578
474 65 72
475 65 377
476 65 65
477 65 394
478 65 746
479 65 834
480 65 603
481 64 923
482 64 876
483 64 19
484 64 67
485 63 445
486 63 403
487 63 974
488 63 477
489 63 198
490 62 35
491 61 594
492 61 650
493 61 498
494 61 910
495 61 203
496 61 366
497 60 454
498 60 130
499 60 419
500 60 140
